
Gurobi 7.5.2 (linux64) logging started Sat Jun 23 16:34:35 2018

Changed value of parameter LogFile to result/ilp/simNo_7-n_100-m_40-s_4-minVAF_0.05-cov_2000-k_1-fn_0.25-fp_0.0001-na_0.15.ILP.gurobiSolverLog
   Prev: gurobi.log  Default: 
Changed value of parameter TimeLimit to 86400.0
   Prev: 1e+100  Min: 0.0  Max: 1e+100  Default: 1e+100
Optimize a model with 1265601 rows, 330440 columns and 3489120 nonzeros
Variable types: 0 continuous, 330440 integer (330440 binary)
Coefficient statistics:
  Matrix range     [3e-03, 4e+00]
  Objective range  [1e+00, 2e+01]
  Bounds range     [1e+00, 1e+00]
  RHS range        [4e-01, 2e+00]
Found heuristic solution: objective -14849.08375
Presolve removed 336306 rows and 214357 columns (presolve time = 6s) ...
Presolve removed 336792 rows and 214357 columns (presolve time = 10s) ...
Presolve removed 337574 rows and 214357 columns (presolve time = 15s) ...
Presolve removed 337815 rows and 214357 columns (presolve time = 20s) ...
Presolve removed 337815 rows and 214357 columns (presolve time = 26s) ...
Presolve removed 337815 rows and 214357 columns (presolve time = 30s) ...
Presolve removed 337815 rows and 214357 columns (presolve time = 39s) ...
Presolve removed 337815 rows and 214357 columns (presolve time = 41s) ...
Presolve removed 337815 rows and 214357 columns
Presolve time: 40.60s
Presolved: 927786 rows, 116083 columns, 2573621 nonzeros
Variable types: 0 continuous, 116083 integer (116083 binary)
Presolved: 116083 rows, 1043869 columns, 2689704 nonzeros

Presolve removed 116083 rows and 1043869 columns

Root simplex log...

Iteration    Objective       Primal Inf.    Dual Inf.      Time
       0    1.6091998e+01   0.000000e+00   9.887200e+04     51s
   15740   -2.7708995e+02   0.000000e+00   1.349693e+06     55s
   26627   -3.1224910e+02   0.000000e+00   1.967062e+06     60s
   36941   -3.4624332e+02   0.000000e+00   4.607059e+05     65s
   47828   -3.7952154e+02   0.000000e+00   1.579964e+05     70s
   56996   -3.9869431e+02   0.000000e+00   3.108064e+05     75s
   66737   -4.1677306e+02   0.000000e+00   2.384628e+05     80s
   75332   -4.3343126e+02   0.000000e+00   3.690628e+05     85s
   83354   -4.4565345e+02   0.000000e+00   1.773312e+06     90s
   91376   -4.5783596e+02   0.000000e+00   3.140168e+05     95s
   99971   -4.7091520e+02   0.000000e+00   9.593983e+04    100s
  107993   -4.8577827e+02   0.000000e+00   6.555763e+05    105s
  115442   -4.9640739e+02   0.000000e+00   1.001610e+05    110s
  125756   -5.1247504e+02   0.000000e+00   3.346325e+05    115s
  134924   -5.2437063e+02   0.000000e+00   1.063539e+06    120s
  145485   -5.3297827e+02   5.400243e-04   0.000000e+00    125s
  145486   -5.3297827e+02   0.000000e+00   0.000000e+00    125s
  145486   -5.3297827e+02   0.000000e+00   0.000000e+00    128s

Root relaxation: objective -5.329783e+02, 145486 iterations, 84.06 seconds
Total elapsed time = 130.16s
Total elapsed time = 197.89s
Total elapsed time = 234.46s
Total elapsed time = 271.32s

    Nodes    |    Current Node    |     Objective Bounds      |     Work
 Expl Unexpl |  Obj  Depth IntInf | Incumbent    BestBd   Gap | It/Node Time

     0     0 -532.97827    0 1290 -14849.084 -532.97827  96.4%     -  281s
H    0     0                    -605.8216679 -532.97827  12.0%     -  339s
     0     0 -537.65786    0 1297 -605.82167 -537.65786  11.3%     -  430s
     0     0 -537.65786    0 1299 -605.82167 -537.65786  11.3%     -  468s
     0     0 -542.33744    0 1298 -605.82167 -542.33744  10.5%     -  671s
     0     0 -542.33744    0 1296 -605.82167 -542.33744  10.5%     -  727s
     0     0 -543.00622    0 1296 -605.82167 -543.00622  10.4%     -  825s
     0     0 -543.00622    0 1291 -605.82167 -543.00622  10.4%     -  874s
     0     0 -544.34324    0 1302 -605.82167 -544.34324  10.1%     -  957s
     0     0 -544.34324    0 1304 -605.82167 -544.34324  10.1%     - 1016s
     0     0 -546.34878    0 1292 -605.82167 -546.34878  9.82%     - 1153s
     0     0 -546.34878    0 1288 -605.82167 -546.34878  9.82%     - 1206s
     0     0 -547.35141    0 1406 -605.82167 -547.35141  9.65%     - 1463s
H    0     0                    -604.4851846 -547.35141  9.45%     - 1503s
     0     0 -547.46278    0 1405 -604.48518 -547.46278  9.43%     - 1568s
     0     0 -547.46287    0 1400 -604.48518 -547.46287  9.43%     - 1579s
     0     0 -548.55460    0 1317 -604.48518 -548.55460  9.25%     - 1828s
     0     0 -549.02255    0 1289 -604.48518 -549.02255  9.18%     - 2155s
     0     0 -549.25512    0 1768 -604.48518 -549.25512  9.14%     - 2291s
     0     0 -549.28902    0 1803 -604.48518 -549.28902  9.13%     - 2355s
     0     0 -549.28902    0 1805 -604.48518 -549.28902  9.13%     - 2367s
     0     0 -549.85819    0 1308 -604.48518 -549.85819  9.04%     - 2512s
     0     0 -550.42015    0 1853 -604.48518 -550.42015  8.94%     - 2950s
     0     0 -550.43710    0 1852 -604.48518 -550.43710  8.94%     - 2976s
     0     0 -551.86400    0 1259 -604.48518 -551.86400  8.71%     - 3082s
     0     0 -552.61587    0 1432 -604.48518 -552.61587  8.58%     - 3246s
     0     0 -552.72127    0 1877 -604.48518 -552.72127  8.56%     - 3293s
     0     0 -552.75517    0 1428 -604.48518 -552.75517  8.56%     - 3308s
     0     0 -552.81565    0 1842 -604.48518 -552.81565  8.55%     - 3329s
     0     0 -552.81565    0 1842 -604.48518 -552.81565  8.55%     - 3338s
     0     0 -554.48693    0 1767 -604.48518 -554.48693  8.27%     - 3537s
     0     0 -554.53791    0 1341 -604.48518 -554.53791  8.26%     - 3681s
     0     0 -554.53791    0 1376 -604.48518 -554.53791  8.26%     - 3695s
     0     0 -555.54054    0 1245 -604.48518 -555.54054  8.10%     - 4020s
     0     0 -556.20905    0 1212 -604.48518 -556.20905  7.99%     - 4319s
     0     0 -556.20905    0 1271 -604.48518 -556.20905  7.99%     - 4340s
     0     0 -556.49397    0 1898 -604.48518 -556.49397  7.94%     - 4892s
     0     0 -556.51001    0 1458 -604.48518 -556.51001  7.94%     - 5076s
     0     0 -556.53181    0 1475 -604.48518 -556.53181  7.93%     - 5118s
     0     0 -556.53280    0 1482 -604.48518 -556.53280  7.93%     - 5133s
     0     0 -558.40981    0 1444 -604.48518 -558.40981  7.62%     - 5705s
     0     0 -558.60279    0 1895 -604.48518 -558.60279  7.59%     - 5918s
     0     0 -558.61789    0 1907 -604.48518 -558.61789  7.59%     - 5990s
     0     0 -558.64499    0 1902 -604.48518 -558.64499  7.58%     - 6051s
     0     0 -558.64499    0 1897 -604.48518 -558.64499  7.58%     - 6068s
     0     0 -561.21393    0 1470 -604.48518 -561.21393  7.16%     - 6983s
     0     0 -561.78026    0 1896 -604.48518 -561.78026  7.06%     - 7400s
     0     0 -561.94466    0 1899 -604.48518 -561.94466  7.04%     - 7460s
     0     0 -561.94931    0 1897 -604.48518 -561.94931  7.04%     - 7475s
     0     0 -561.95461    0 1901 -604.48518 -561.95461  7.04%     - 7498s
     0     0 -561.95461    0 1902 -604.48518 -561.95461  7.04%     - 7505s
     0     0 -563.49163    0 1849 -604.48518 -563.49163  6.78%     - 8204s
     0     0 -563.92151    0 1854 -604.48518 -563.92151  6.71%     - 8512s
     0     0 -564.14435    0 1861 -604.48518 -564.14435  6.67%     - 8585s
     0     0 -564.14697    0 1906 -604.48518 -564.14697  6.67%     - 8605s
     0     0 -566.26343    0 1845 -604.48518 -566.26343  6.32%     - 9328s
     0     0 -566.66737    0 1865 -604.48518 -566.66737  6.26%     - 9627s
     0     0 -566.70612    0 1874 -604.48518 -566.70612  6.25%     - 9647s
     0     0 -566.72921    0 1883 -604.48518 -566.72921  6.25%     - 9662s
     0     0 -566.72921    0 1883 -604.48518 -566.72921  6.25%     - 9670s
     0     0 -567.92759    0 1470 -604.48518 -567.92759  6.05%     - 9999s
     0     0 -568.22104    0 1907 -604.48518 -568.22104  6.00%     - 10304s
     0     0 -568.28444    0 1903 -604.48518 -568.28444  5.99%     - 10336s
     0     0 -568.30737    0 1900 -604.48518 -568.30737  5.98%     - 10355s
     0     0 -568.30886    0 1902 -604.48518 -568.30886  5.98%     - 10367s
     0     0 -569.04655    0 1853 -604.48518 -569.04655  5.86%     - 10509s
     0     0 -569.20684    0 1442 -604.48518 -569.20684  5.84%     - 10678s
     0     0 -569.22183    0 1856 -604.48518 -569.22183  5.83%     - 10701s
     0     0 -569.22183    0 1855 -604.48518 -569.22183  5.83%     - 10714s
     0     0 -569.85306    0 1884 -604.48518 -569.85306  5.73%     - 11012s
     0     0 -570.28923    0 1898 -604.48518 -570.28923  5.66%     - 11243s
     0     0 -570.39176    0 2081 -604.48518 -570.39176  5.64%     - 11338s
     0     0 -570.44494    0 1916 -604.48518 -570.44494  5.63%     - 11399s
     0     0 -570.44522    0 1923 -604.48518 -570.44522  5.63%     - 11409s
     0     0 -572.42405    0 1473 -604.48518 -572.42405  5.30%     - 12067s
     0     0 -572.55117    0 1453 -604.48518 -572.55117  5.28%     - 12351s
     0     0 -572.62068    0 1443 -604.48518 -572.62068  5.27%     - 12420s
     0     0 -572.64973    0 1445 -604.48518 -572.64973  5.27%     - 12516s
     0     0 -572.65603    0 1448 -604.48518 -572.65603  5.27%     - 12533s
     0     0 -572.65608    0 1450 -604.48518 -572.65608  5.27%     - 12542s
     0     0 -573.82151    0 1432 -604.48518 -573.82151  5.07%     - 13264s
     0     0 -574.02325    0 1269 -604.48518 -574.02325  5.04%     - 14015s
     0     0 -574.03642    0 1438 -604.48518 -574.03642  5.04%     - 14029s
     0     0 -574.04806    0 1250 -604.48518 -574.04806  5.04%     - 14044s
     0     0 -574.06692    0 1435 -604.48518 -574.06692  5.03%     - 14056s
     0     0 -574.06692    0 1435 -604.48518 -574.06692  5.03%     - 14063s
     0     0 -574.87745    0 1442 -604.48518 -574.87745  4.90%     - 14206s
     0     0 -575.00906    0 1449 -604.48518 -575.00906  4.88%     - 14391s
     0     0 -575.09774    0 1457 -604.48518 -575.09774  4.86%     - 14440s
     0     0 -575.10560    0 1457 -604.48518 -575.10560  4.86%     - 14462s
     0     0 -575.11730    0 1460 -604.48518 -575.11730  4.86%     - 14486s
     0     0 -575.15566    0 1467 -604.48518 -575.15566  4.85%     - 14534s
     0     0 -575.15652    0 1479 -604.48518 -575.15652  4.85%     - 14548s
     0     0 -576.13377    0 1484 -604.48518 -576.13377  4.69%     - 14883s
     0     0 -576.40637    0 1482 -604.48518 -576.40637  4.65%     - 15090s
     0     0 -576.40819    0 1484 -604.48518 -576.40819  4.64%     - 15108s
     0     0 -578.05518    0 1824 -604.48518 -578.05518  4.37%     - 16396s
     0     0 -578.12681    0 1866 -604.48518 -578.12681  4.36%     - 16516s
     0     0 -578.16106    0 1873 -604.48518 -578.16106  4.35%     - 16640s
     0     0 -578.16456    0 1881 -604.48518 -578.16456  4.35%     - 16675s
     0     0 -578.49043    0 1854 -604.48518 -578.49043  4.30%     - 17072s
     0     0 -578.65343    0 1886 -604.48518 -578.65343  4.27%     - 17285s
     0     0 -578.70918    0 1889 -604.48518 -578.70918  4.26%     - 17323s
     0     0 -578.72462    0 2060 -604.48518 -578.72462  4.26%     - 17345s
     0     0 -578.72736    0 2065 -604.48518 -578.72736  4.26%     - 17358s
     0     0 -579.62512    0  698 -604.48518 -579.62512  4.11%     - 18019s
     0     0 -580.27100    0 1876 -604.48518 -580.27100  4.01%     - 19252s
     0     0 -580.35748    0  705 -604.48518 -580.35748  3.99%     - 19359s
     0     0 -580.50579    0  705 -604.48518 -580.50579  3.97%     - 19506s
     0     0 -580.53934    0  706 -604.48518 -580.53934  3.96%     - 19625s
     0     0 -580.54267    0  713 -604.48518 -580.54267  3.96%     - 19646s
     0     0 -581.36368    0  703 -604.48518 -581.36368  3.82%     - 20723s
     0     0 -581.53723    0  709 -604.48518 -581.53723  3.80%     - 21022s
     0     0 -581.57035    0  712 -604.48518 -581.57035  3.79%     - 21085s
     0     0 -581.58151    0  712 -604.48518 -581.58151  3.79%     - 21118s
     0     0 -581.59577    0  712 -604.48518 -581.59577  3.79%     - 21217s
     0     0 -581.59610    0  711 -604.48518 -581.59610  3.79%     - 21239s
     0     0 -583.08434    0  686 -604.48518 -583.08434  3.54%     - 23479s
     0     0 -583.14822    0  700 -604.48518 -583.14822  3.53%     - 23764s
     0     0 -583.17572    0  706 -604.48518 -583.17572  3.53%     - 23966s
     0     0 -583.18064    0  699 -604.48518 -583.18064  3.52%     - 24000s
     0     0 -583.58880    0  694 -604.48518 -583.58880  3.46%     - 26045s
     0     0 -584.06848    0  695 -604.48518 -584.06848  3.38%     - 26416s
     0     0 -584.13284    0  707 -604.48518 -584.13284  3.37%     - 26652s
     0     0 -584.14483    0 2652 -604.48518 -584.14483  3.36%     - 27054s
     0     0 -584.14592    0 2466 -604.48518 -584.14592  3.36%     - 27072s
     0     0 -585.46677    0  694 -604.48518 -585.46677  3.15%     - 27429s
     0     0 -585.74323    0 2572 -604.48518 -585.74323  3.10%     - 28115s
     0     0 -585.88828    0 2432 -604.48518 -585.88828  3.08%     - 28438s
     0     0 -585.96396    0 2457 -604.48518 -585.96396  3.06%     - 28701s
     0     0 -586.00212    0 2401 -604.48518 -586.00212  3.06%     - 28788s
     0     0 -586.02724    0 2434 -604.48518 -586.02724  3.05%     - 28839s
     0     0 -586.02798    0 2434 -604.48518 -586.02798  3.05%     - 28851s
     0     0 -586.51113    0 2401 -604.48518 -586.51113  2.97%     - 29185s
     0     0 -586.68053    0  708 -604.48518 -586.68053  2.95%     - 29338s
     0     0 -586.68599    0  714 -604.48518 -586.68599  2.94%     - 29356s
     0     0 -587.04577    0  708 -604.48518 -587.04577  2.89%     - 29771s
     0     0 -587.09792    0  716 -604.48518 -587.09792  2.88%     - 30003s
     0     0 -587.09862    0  720 -604.48518 -587.09862  2.88%     - 30016s
     0     0 -587.53170    0  696 -604.48518 -587.53170  2.80%     - 32080s
     0     0 -587.78980    0  701 -604.48518 -587.78980  2.76%     - 32768s
     0     0 -587.88817    0  705 -604.48518 -587.88817  2.75%     - 33113s
     0     0 -587.93973    0  712 -604.48518 -587.93973  2.74%     - 33282s
     0     0 -587.94522    0  713 -604.48518 -587.94522  2.74%     - 33331s
     0     0 -588.41753    0  709 -604.48518 -588.41753  2.66%     - 34161s
     0     0 -588.53935    0  717 -604.48518 -588.53935  2.64%     - 34401s
     0     0 -588.59875    0  722 -604.48518 -588.59875  2.63%     - 34562s
     0     0 -588.61030    0  726 -604.48518 -588.61030  2.63%     - 34645s
     0     0 -588.61262    0  725 -604.48518 -588.61262  2.63%     - 34670s
     0     0 -588.98297    0  699 -604.48518 -588.98297  2.56%     - 35400s
     0     0 -589.07736    0  717 -604.48518 -589.07736  2.55%     - 35735s
     0     0 -589.10345    0  719 -604.48518 -589.10345  2.54%     - 36079s
     0     0 -589.13113    0  721 -604.48518 -589.13113  2.54%     - 36131s
     0     0 -589.15406    0  722 -604.48518 -589.15406  2.54%     - 36203s
     0     0 -589.16628    0  719 -604.48518 -589.16628  2.53%     - 36260s
     0     0 -589.17035    0  719 -604.48518 -589.17035  2.53%     - 36322s
     0     0 -589.49015    0  713 -604.48518 -589.49015  2.48%     - 36745s
     0     0 -589.63382    0  719 -604.48518 -589.63382  2.46%     - 37089s
     0     0 -589.70971    0  723 -604.48518 -589.70971  2.44%     - 37539s
     0     0 -589.74075    0  719 -604.48518 -589.74075  2.44%     - 37648s
     0     0 -589.75913    0  725 -604.48518 -589.75913  2.44%     - 37723s
     0     0 -589.76199    0  719 -604.48518 -589.76199  2.44%     - 37775s
     0     0 -589.90803    0  721 -604.48518 -589.90803  2.41%     - 38195s
     0     0 -589.98817    0  724 -604.48518 -589.98817  2.40%     - 38340s
     0     0 -590.08288    0  722 -604.48518 -590.08288  2.38%     - 38467s
     0     0 -590.09017    0  723 -604.48518 -590.09017  2.38%     - 38522s
     0     0 -590.09017    0  722 -604.48518 -590.09017  2.38%     - 38529s
     0     0 -590.26240    0  708 -604.48518 -590.26240  2.35%     - 39162s
     0     0 -590.29487    0  712 -604.48518 -590.29487  2.35%     - 39206s
     0     0 -590.31245    0  824 -604.48518 -590.31245  2.34%     - 39306s
     0     0 -590.36358    0  827 -604.48518 -590.36358  2.34%     - 39591s
     0     0 -590.38088    0  832 -604.48518 -590.38088  2.33%     - 39758s
     0     0 -590.38508    0  833 -604.48518 -590.38508  2.33%     - 39805s
     0     0 -590.40023    0  826 -604.48518 -590.40023  2.33%     - 39968s
     0     0 -590.43252    0  823 -604.48518 -590.43252  2.32%     - 40025s
     0     0 -590.44032    0  826 -604.48518 -590.44032  2.32%     - 40112s
     0     0 -590.44061    0  829 -604.48518 -590.44061  2.32%     - 40158s
     0     0 -590.64378    0  715 -604.48518 -590.64378  2.29%     - 40313s
     0     0 -590.76378    0  818 -604.48518 -590.76378  2.27%     - 41288s
     0     0 -590.76880    0  823 -604.48518 -590.76880  2.27%     - 41325s
     0     0 -590.94494    0  808 -604.48518 -590.94494  2.24%     - 42152s
     0     0 -591.04650    0  701 -604.48518 -591.04650  2.22%     - 42218s
     0     0 -591.05827    0  713 -604.48518 -591.05827  2.22%     - 42247s
     0     0 -591.05882    0  712 -604.48518 -591.05882  2.22%     - 42261s
     0     0 -591.09055    0  707 -604.48518 -591.09055  2.22%     - 42338s
     0     0 -591.09255    0  713 -604.48518 -591.09255  2.22%     - 42382s
     0     0 -591.09574    0  713 -604.48518 -591.09574  2.22%     - 42443s
     0     0 -591.09574    0  704 -604.48518 -591.09574  2.22%     - 42682s
     0     2 -591.09671    0  703 -604.48518 -591.09671  2.21%     - 42929s
     1     3 -591.26322    1  689 -604.48518 -591.09682  2.21%  4339 42954s
     2     4 -594.33930    1 1965 -604.48518 -591.26444  2.19% 12954 43135s
     3     5 -594.40218    2 1801 -604.48518 -591.27473  2.19% 13275 43230s
     4     6 -591.58571    2  676 -604.48518 -591.58571  2.13% 10194 43236s
     5     7 -591.76714    3  680 -604.48518 -591.58571  2.13%  8343 43243s
     6     8 -591.97141    4  663 -604.48518 -591.58571  2.13%  7020 43248s
     7     9 -598.15514    4  601 -604.48518 -591.58571  2.13%  9475 43429s
     8    10 -594.14407    5  655 -604.48518 -591.58571  2.13%  9215 43533s
     9    11 -594.14407    6  639 -604.48518 -591.58571  2.13%  8199 43566s
    10    12 -598.15514    6  456 -604.48518 -591.58571  2.13%  8231 43616s
    11    13 -600.79041    7  522 -604.48518 -591.58571  2.13%  7777 43655s
    12    14 -598.26666    7  449 -604.48518 -591.58571  2.13%  7192 43661s
    13    13     cutoff    8      -604.48518 -591.58571  2.13%  7495 43732s
    14    14 -598.36067    8  446 -604.48518 -591.58571  2.13%  7019 43735s
    16    16 -598.87265   10  448 -604.48518 -591.58571  2.13%  6211 43770s
    18    18 -604.08975   11  524 -604.48518 -591.58571  2.13%  6204 43861s
    20    18     cutoff   12      -604.48518 -591.58571  2.13%  5859 43883s
    21    19 -599.60505   13  438 -604.48518 -591.58571  2.13%  5599 43887s
    22    20 -602.83885   13  523 -604.48518 -591.58571  2.13%  5487 43904s
    23    21 -599.91702   14  440 -604.48518 -591.58571  2.13%  5288 43908s
    24    20     cutoff   14      -604.48518 -591.58571  2.13%  5110 43914s
    25    21 -600.16970   15  439 -604.48518 -591.58571  2.13%  4921 43916s
    26    20     cutoff   15      -604.48518 -591.58571  2.13%  4752 43922s
    27    21 -600.81717   16  432 -604.48518 -591.58571  2.13%  4595 43941s
    29    21 -601.47140   17  431 -604.48518 -591.58571  2.13%  4316 43947s
    30    20     cutoff   18      -604.48518 -591.58571  2.13%  4200 43951s
    31    21 -601.81114   18  420 -604.48518 -591.58571  2.13%  4111 43955s
    32    22 -602.14539   19  411 -604.48518 -591.58571  2.13%  3990 43971s
    34    22 -602.47965   20  415 -604.48518 -591.58571  2.13%  3780 43976s
    35    21     cutoff   20      -604.48518 -591.58571  2.13%  3686 43980s
    37    21 -604.15093   21  398 -604.48518 -591.58571  2.13%  3521 43987s
    42    20 -595.48110    3  458 -604.48518 -591.99483  2.07%  3446 44074s
    43    21 -598.11636    4  520 -604.48518 -591.99483  2.07%  3516 44108s
    44    22 -595.59262    4  449 -604.48518 -591.99483  2.07%  3477 44120s
    45    23 -596.12992    5  457 -604.48518 -591.99483  2.07%  3441 44162s
    46    24 -596.38883    6  444 -604.48518 -591.99483  2.07%  3381 44166s
    47    25 -599.63848    6  366 -604.48518 -591.99483  2.07%  3333 44176s
    48    26 -596.42633    7  450 -604.48518 -591.99483  2.07%  3267 44208s
    49    27 -603.10654    7  516 -604.48518 -591.99483  2.07%  3443 44282s
    50    28 -602.25576    8  514 -604.48518 -591.99483  2.07%  3572 44330s
    52    30 -596.89066    9  442 -604.48518 -591.99483  2.07%  3449 44336s
    53    31 -604.23338    9  508 -604.48518 -591.99483  2.07%  3571 44396s
    54    32 -597.34228   10  429 -604.48518 -591.99483  2.07%  3521 44429s
    55    33 -603.39314   10  505 -604.48518 -591.99483  2.07%  3608 44477s
    56    34 -597.49367   11  435 -604.48518 -591.99483  2.07%  3550 44506s
    58    36 -604.01611   12  501 -604.48518 -591.99483  2.07%  3471 44518s
    59    37 -597.63294   13  422 -604.48518 -591.99483  2.07%  3417 44520s
    60    36     cutoff   13      -604.48518 -591.99483  2.07%  3371 44526s
    62    38 -601.88846   15  480 -604.48518 -591.99483  2.07%  3288 44534s
    63    39 -598.70792   15  442 -604.48518 -591.99483  2.07%  3243 44554s
    64    40 -599.07519   16  438 -604.48518 -591.99483  2.07%  3200 44575s
    66    38     cutoff   17      -604.48518 -591.99483  2.07%  3126 44584s
    67    39 -599.08567   17  438 -604.48518 -591.99483  2.07%  3080 44585s
    70    40     cutoff   19      -604.48518 -591.99483  2.07%  2961 44591s
    72    42 -600.80837   20  390 -604.48518 -591.99483  2.07%  2892 44621s
    75    43 -601.42913   22  401 -604.48518 -591.99483  2.07%  2784 44625s
    77    43 -603.48242   23  371 -604.48518 -591.99483  2.07%  2725 44631s
    80    43 -604.31806   24  367 -604.48518 -591.99483  2.07%  2630 44646s
    83    42     cutoff   25      -604.48518 -591.99483  2.07%  2537 44650s
    86    41 -592.80705    5  595 -604.48518 -592.80705  1.93%  2464 44659s
    87    42 -594.04432    6  644 -604.48518 -592.80705  1.93%  2574 44813s
    88    41     cutoff    6      -604.48518 -594.04432  1.73%  6453 56356s
    89    42 -594.26715    7  608 -604.48518 -594.04432  1.73%  6397 56370s
    90    43 -598.96278    7  761 -604.48518 -594.14407  1.71%  8379 60799s
    91    44 -596.54796    8  644 -604.48518 -594.14407  1.71%  9736 63735s
    92    45 -597.17714    9  642 -604.48518 -594.14407  1.71%  9708 63855s
    93    46 -598.39977   10  629 -604.48518 -594.14407  1.71%  9665 63904s
    94    47 -599.61525   11  475 -604.48518 -594.14407  1.71%  9601 63972s
    95    46     cutoff   12      -604.48518 -594.14407  1.71% 13928 76297s
    96    47 -599.82519   12  468 -604.48518 -594.14407  1.71% 13933 76562s
    97    48 -600.03067   13  465 -604.48518 -594.14407  1.71% 14129 77136s
    98    49 -602.38979   13  540 -604.48518 -594.14407  1.71% 15690 80807s
    99    50 -600.12691   14  461 -604.48518 -594.14407  1.71% 15694 81096s

Cutting planes:
  MIR: 1
  Zero half: 505

Explored 100 nodes (3409305 simplex iterations) in 86400.58 seconds
Thread count was 1 (of 80 available processors)

Solution count 3: -604.485 -605.822 -14849.1 

Time limit reached
Best objective -6.044851845682e+02, best bound -5.941440742768e+02, gap 1.7107%
